8,8	0,0	18,4	5,8	0,0	0,0	0,0	0,0	0,0	18,0
14,9	14,6	0,0	18,3	16,4	0,0	0,0	18,5	0,0	0,0
0,0	0,0	16,4	0,0	8,3	13,1	0,0	0,0	5,8	0,0
7,2	0,0	15,3	0,0	0,0	0,0	18,0	0,0	0,0	0,0
0,0	15,0	0,0	18,9	8,1	0,0	0,0	16,2	0,0	0,0
0,0	5,2	7,4	0,0	14,6	19,8	0,0	0,0	16,5	0,0
0,0	8,3	0,0	11,9	0,0	0,0	10,6	0,0	0,0	19,2
6,1	0,0	14,4	0,0	0,0	0,0	0,0	0,0	0,0	14,4
0,0	12,1	0,0	17,9	11,2	0,0	0,0	14,8	0,0	0,0
0,0	0,0	7,9	0,0	0,0	9,7	16,1	0,0	0,0	8,4
									
3,1	3,0	4,4	4,6	5,0	2,9	2,8	4,7	3,3	2,6
